# ORCA job from PDB
! B3LYP D3BJ def2-SVP Opt TightSCF

* xyz +1 2
O          4.26000        0.26400        1.17100
C          4.12700        1.06900        0.27900
C          5.26600        1.59800       -0.60300
C          4.56100        2.46200       -1.67800
C          3.15500        2.46600       -1.15900
C          2.10500        3.13100       -1.64900
C          0.86900        3.01600       -1.11600
O         -0.10600        3.78600       -1.71700
C         -1.22000        4.23500       -0.98300
C          0.69600        2.21500       -0.02800
O         -0.55700        2.07800        0.52100
C         -0.79700        1.09000        1.49600
C          1.76600        1.53600        0.44600
C          2.97600        1.67200       -0.10700
C          6.18900        0.50900       -1.18000
C          7.54600        0.33300       -0.46300
C          7.42100       -0.09600        1.00500
C          8.78600       -0.28300        1.67600
N          9.55900       -1.31800        0.88800
C          9.78300       -0.89100       -0.54600
C          8.40700       -0.70800       -1.19800
C         10.85900       -1.67200        1.58200
C         11.49500       -2.88100        0.93100
C         12.68900       -2.79700        0.31700
C         13.24300       -3.87400       -0.26100
C         12.60600       -5.05500       -0.23100
C         11.41600       -5.15100        0.37900
C         10.86800       -4.07000        0.95500
H          5.85800        2.28300        0.05200
H          4.98100        3.49100       -1.74400
H          4.56000        1.98700       -2.68500
H          2.26900        3.78400       -2.52300
H         -1.70300        5.04800       -1.57000
H         -1.97300        3.42600       -0.87200
H         -0.89700        4.65900       -0.00600
H         -1.88300        1.11200        1.73800
H         -0.55200        0.08100        1.09400
H         -0.23600        1.31800        2.43000
H          1.67900        0.86000        1.31000
H          5.64400       -0.46200       -1.22000
H          6.42500        0.77300       -2.23900
H          8.08500        1.31400       -0.49800
H          6.86000        0.67700        1.58200
H          6.84500       -1.04900        1.06600
H          8.63500       -0.63700        2.72300
H          9.34800        0.67900        1.71100
H          8.97400       -2.18600        0.86600
H         10.34600       -1.67600       -1.10200
H         10.37200        0.05400       -0.58600
H          7.87500       -1.68900       -1.21400
H          8.55200       -0.39900       -2.26100
H         11.54100       -0.79100        1.58700
H         10.66000       -1.93600        2.64700
H         13.22500       -1.83400        0.27900
H         14.22100       -3.78900       -0.76300
H         13.05900       -5.94100       -0.70600
H         10.88700       -6.11900        0.40700
H          9.88800       -4.16100        1.45300
*
