# ORCA job from PDB
! B3LYP D3BJ def2-SVP Opt TightSCF

* xyz 0 1
C          7.62200        3.33700        0.90800
C          6.46800        2.88800        1.81800
C          6.97200        2.41100        3.19000
C          5.56500        1.86200        1.14300
C          5.99600        0.64000        0.77600
C          5.12500       -0.19700        0.18700
C          3.83400        0.09800       -0.05500
C          3.41700        1.33100        0.29700
C          4.28100        2.17300        0.88900
C          2.00300        1.82000        0.07500
C          1.14100        0.89500       -0.78900
C          1.42900       -0.56500       -0.41200
C          2.90600       -0.91100       -0.75800
C          3.17000       -2.36400       -0.29300
C          2.14300       -3.37100       -0.82800
C          0.72700       -2.99600       -0.38400
C          0.31100       -1.57000       -0.81300
C         -1.00200       -1.25400       -0.04300
C         -0.06000       -1.54400       -2.31000
C          3.29300       -0.78300       -2.25100
O          7.27700        0.22400        0.97100
H          8.19400        4.17300        1.37200
H          8.35100        2.52200        0.70900
H          7.23800        3.69900       -0.07400
H          5.86700        3.81200        2.02300
H          6.12200        2.10700        3.84300
H          7.52500        3.22200        3.71600
H          7.66800        1.54700        3.11100
H          5.52800       -1.17500       -0.11300
H          3.90800        3.17000        1.17800
H          2.01500        2.83800       -0.38200
H          1.53200        1.91500        1.08400
H          1.33900        1.06800       -1.86900
H          0.07400        1.17400       -0.63300
H          1.40000       -0.59700        0.70900
H          4.17400       -2.72500       -0.61500
H          3.15500       -2.39800        0.82300
H          2.38900       -4.39100       -0.44500
H          2.19800       -3.44000       -1.93800
H          0.69200       -3.07200        0.72900
H         -0.00000       -3.74600       -0.77500
H         -0.83600       -1.17000        1.05500
H         -1.48000       -0.30900       -0.38000
H         -1.76200       -2.05300       -0.19300
H         -0.94500       -2.18700       -2.51600
H         -0.32000       -0.51900       -2.65500
H          0.74100       -1.92900       -2.97000
H          2.71100       -1.44400       -2.92000
H          3.19000        0.25400       -2.63800
H          4.35800       -1.06400       -2.41600
H          7.37500       -0.68000        0.62800
*
