# ORCA job from PDB
! B3LYP D3BJ def2-SVP Opt TightSCF

* xyz 0 1
H         -3.11100       -3.27300       -0.98800
H         -5.17900       -2.42400        3.69000
C          2.36000       -1.24500        0.78400
H         -0.68600        1.62600        1.12100
H         -0.39900        3.69300       -2.00000
H          0.78100        1.01100        1.90200
H          4.40500       -0.51100        0.66000
H          1.93600        3.27000       -1.30900
C          3.06700        1.05800       -0.10200
H          1.81700        0.77200       -1.76300
C          1.05700       -1.18100       -0.02000
C         -2.40600        2.14600       -1.45900
H          2.69300       -2.30800        0.86800
C          1.64000        1.16200       -0.72600
H          4.33300        1.85700        1.51800
C         -4.46900       -2.66100        2.88200
H          2.19900       -0.88800        1.82600
H         -2.38100       -0.84000       -2.01100
C         -0.03300        2.64400       -1.90300
H          5.15900        1.45300       -0.73000
H          0.31900       -1.84700        0.48100
C          4.12000        1.65400       -1.07900
H          0.82200        3.04000        0.06300
C          3.25800        1.82200        1.22700
H         -4.74800       -2.66300       -0.57400
H          0.31800        2.33700       -2.91700
H         -2.64500        3.19100       -1.70400
C          1.13500        2.60500       -0.91300
H         -1.32100       -1.79500       -0.99900
H         -3.81100       -0.30600       -0.32300
C         -0.02600        0.73500        1.20000
H         -0.22400       -0.02600       -2.17800
C         -4.15000       -1.74600        1.95600
C         -0.69400        0.27300       -1.20200
H         -2.22300       -3.06200        2.13000
H          3.63900       -0.89200       -0.90800
H         -4.04100       -3.67400        2.87000
O         -1.99900       -2.53300        1.36200
H          4.03700        2.75800       -1.17700
H          4.04100        1.22200       -2.10200
H         -2.52400        0.07200        0.83100
C         -2.84600       -0.68700        0.08800
H         -4.61900       -0.75000        2.02200
H          1.24400       -1.61700       -1.03000
C         -3.18500       -2.00000        0.81400
H          2.91500        2.87700        1.15600
C         -3.79100       -3.03400       -0.14100
H         -4.00500       -3.99600        0.37600
C         -1.81000       -0.79700       -1.05000
C         -1.14000        1.70000       -1.48800
H         -0.59500       -0.05800        1.73100
C          0.49300        0.25200       -0.17100
C          3.45000       -0.42700        0.08900
H         -3.26400        1.51500       -1.21100
H          2.75000        1.35000        2.09000
*
