# ORCA job from PDB
! B3LYP D3BJ def2-SVP Opt TightSCF

* xyz 0 1
C          1.18700        2.43800        3.26700
C         -0.17700        1.88500        1.18900
C          0.23500        0.64400        0.86900
C         -0.63700       -0.17800        0.26200
C         -1.90900        0.14400       -0.03700
C         -2.31300        1.39400        0.27900
C         -1.44100        2.22700        0.88000
C         -3.57300        1.84100        0.00400
O         -3.96400        2.96900        0.22600
C         -4.59200        0.89200       -0.61000
C         -6.65900       -1.33600        0.13600
C         -5.84100       -1.48100       -2.19100
C         -2.50500       -0.61000       -2.26700
O          1.49600        0.19700        1.12100
H          0.15800        3.84600        2.04300
H          0.31200        2.16700        3.90000
H          1.86500        1.55800        3.22700
H         -0.24200       -1.17000       -0.00300
H         -1.74900        3.25100        1.14700
H         -2.42300       -2.45400        0.67300
H         -3.23600       -4.36800       -0.66700
H         -7.16300       -0.37700       -0.11500
H         -5.04900       -1.74700       -2.91700
C         -4.26600       -0.57600       -0.32500
C         -2.81200       -0.86200       -0.77300
C         -2.48600       -2.33700       -0.43600
H         -4.87100       -3.15500        0.70700
C         -3.52800       -3.33200       -0.96500
C         -4.91500       -3.01800       -0.40000
C         -5.38600       -1.58100       -0.72000
H         -2.71700        0.43500       -2.58400
H         -5.58700        1.14700       -0.17800
H          2.50900        4.12800        1.45000
H          2.63600        2.46100        0.82100
H         -4.65700        1.10200       -1.70000
H          1.57900        3.65300       -0.01300
H          1.74400        3.24700        3.79300
H         -4.22500       -0.66300        0.79400
H         -7.41700       -2.13600       -0.02600
H         -1.50100       -2.64500       -0.85900
H         -3.55100       -3.32800       -2.07800
H         -6.68400       -2.17900       -2.39800
H          1.58700       -0.71100        0.78900
H         -6.20300       -0.46200       -2.44700
H         -3.05700       -1.28100       -2.95300
H         -1.42700       -0.78500       -2.48500
H         -5.65300       -3.76200       -0.78000
H         -6.43500       -1.32100        1.22600
C          0.73500        2.90000        1.87200
C          1.92600        3.30000        0.98500
*
