# ORCA job from PDB
! B3LYP D3BJ def2-SVP Opt TightSCF

* xyz -1 1
C         -2.78100       -0.89900       -0.71600
C         -5.78000       -1.50300       -2.20200
C          0.22600        0.59700        0.98700
C         -0.63400       -0.22800        0.37100
C         -2.27600        1.37500        0.30700
C         -0.16800        1.85200        1.27000
C         -3.51800        1.83400       -0.01500
C         -1.41500        2.21200        0.91600
H         -0.24600       -1.23100        0.14000
C         -4.53100        0.88000       -0.64000
H         -2.97100       -1.35800       -2.89300
O          1.46700        0.13700        1.28900
H         -1.34700       -0.88000       -2.38800
H          1.68700        3.53700        0.09400
H         -6.12200       -0.48400       -2.48600
H         -2.45500       -2.46800        0.77100
C         -4.24100       -0.58600       -0.31200
C          1.13400        2.40300        3.37900
H          0.19700        3.82400        2.09000
H         -6.46100       -1.27000        1.19500
H          1.76200        1.48600        3.37400
H         -4.91200       -3.13400        0.75200
H          1.71700        3.19300        3.90500
H         -4.56000        1.06600       -1.73600
C         -2.48600       -2.37200       -0.34100
C         -4.92500       -3.01800       -0.35800
H          2.58700        3.99800        1.57900
H         -4.23200       -0.64800        0.80900
C         -5.36600       -1.58100       -0.71700
C         -6.65600       -1.30100        0.10000
H         -6.62600       -2.19400       -2.41800
H         -5.53700        1.15500       -0.24700
O         -3.93400        2.96200        0.15600
H          0.22700        2.19200        3.99100
H         -1.49500       -2.70300       -0.73200
C         -1.88900        0.11100        0.02600
C         -2.42800       -0.68200       -2.20500
H         -4.97100       -1.79100       -2.90100
C         -3.52800       -3.36200       -0.87900
H         -2.61100        0.35800       -2.54900
H         -7.13900       -0.34000       -0.18100
H         -1.71900        3.24500        1.15100
H         -3.25900       -4.39700       -0.55400
C          0.74700        2.85700        1.96100
H          2.65900        2.31300        0.98400
H         -3.52100       -3.38000       -1.99200
H         -5.66300       -3.75900       -0.74400
H         -7.42200       -2.09200       -0.06800
C          1.98400        3.18700        1.11000
*
