# ORCA job from PDB
! B3LYP D3BJ def2-SVP Opt TightSCF

* xyz 0 1
C         -1.67600        1.82100        1.16000
C          0.03300        0.29100        0.83900
C         -6.87400       -1.67200       -0.17900
H         -2.69700        0.22700       -2.59700
H         -5.12500       -3.51000        0.40400
C         -5.09900       -3.32100       -0.69600
C         -2.08300       -0.17600       -0.04000
H          1.08600       -0.01100        0.97800
C         -2.15700        3.15200        1.75800
C         -4.78600        0.59300       -0.73800
H         -2.69100       -2.77600        0.56300
C         -2.67900       -2.62400       -0.54300
H         -4.45600        1.47000        1.19400
H         -0.36300       -1.43300       -0.24400
H          0.11000        3.05600        2.29000
C         -0.39100        1.45200        1.35500
H         -3.25100        3.29700        1.59200
H         -2.56600        2.32500        3.75200
H         -2.52700        4.11900        3.70000
H         -1.66900       -2.92800       -0.90100
H         -5.80500       -4.05000       -1.15900
H         -5.12100       -1.98900       -3.16200
C         -2.59100       -0.84500       -2.32200
C         -1.50500        4.36500        1.07100
H         -6.79300       -2.36500       -2.73600
C         -2.04800        3.19900        3.29400
C         -3.67500       -3.60100       -1.18100
C         -2.50900        1.01600        0.44600
H         -4.49700       -1.01400        0.63400
H         -1.00400        3.20200        3.67300
H         -6.70700       -1.70100        0.92100
C         -5.55700       -1.87300       -0.97900
O          0.51000        2.21300        2.03400
H         -1.52400       -1.09900       -2.51500
H         -0.40700        4.42200        1.22900
C         -5.93500       -1.70900       -2.46600
H         -3.95600        2.48800       -0.23300
H         -7.37500       -0.70800       -0.41400
H         -1.68300        4.33800       -0.02800
H         -3.39500       -4.64800       -0.90900
H         -4.59700        0.85500       -1.80200
H         -7.61600       -2.46900       -0.41200
H         -6.24200       -0.66700       -2.70500
H         -5.85900        0.83300       -0.56400
C         -2.98000       -1.13500       -0.85300
C         -0.79500       -0.50500        0.15800
H         -1.93400        5.32000        1.45400
C         -3.94200        1.45900        0.20100
C         -4.46700       -0.88100       -0.48000
H         -3.16900       -1.43400       -3.05900
H         -3.62400       -3.54900       -2.29200
*
